(set-info :smt-lib-version 2.6)
(set-logic AUFBVFPDTNIRA)
(set-info :source |
Generated by: AdaCore
Generated on: 2020-03-06
Generator: SPARK
Application: Program verification for Ada
Target solver: CVC4
|)
(set-info :license "https://creativecommons.org/licenses/by/4.0/")
(set-info :category "industrial")
(set-info :status unknown)
;;; generated by SMT-LIB2 driver
;;; SMT-LIB2 driver: bit-vectors, common part
;;; SMT-LIB2: integer arithmetic
;;; SMT-LIB2: real arithmetic
(define-fun fp.isFinite32 ((x Float32)) Bool (not (or (fp.isInfinite x) (fp.isNaN x))))
(define-fun fp.isIntegral32 ((x Float32)) Bool (or (fp.isZero x) (and (fp.isNormal x) (= x (fp.roundToIntegral RNE x)))))
(declare-sort string 0)

(declare-datatypes ((tuple0 0))
(((Tuple0))))
(declare-sort us_private 0)

(declare-fun private__bool_eq (us_private us_private) Bool)

(declare-const us_null_ext__ us_private)

(declare-sort us_type_of_heap 0)

(declare-datatypes ((us_type_of_heap__ref 0))
(((us_type_of_heap__refqtmk (us_type_of_heap__content us_type_of_heap)))))
(declare-sort us_image 0)

(declare-datatypes ((int__ref 0))
(((int__refqtmk (int__content Int)))))
(declare-datatypes ((bool__ref 0))
(((bool__refqtmk (bool__content Bool)))))
(declare-datatypes ((us_fixed__ref 0))
(((us_fixed__refqtmk (us_fixed__content Int)))))
(declare-datatypes ((real__ref 0))
(((real__refqtmk (real__content Real)))))
(declare-datatypes ((us_private__ref 0))
(((us_private__refqtmk (us_private__content us_private)))))
(define-fun int__ref___projection ((a int__ref)) Int (int__content a))

(define-fun us_fixed__ref___projection ((a us_fixed__ref)) Int (us_fixed__content
                                                               a))

(define-fun bool__ref___projection ((a bool__ref)) Bool (bool__content a))

(define-fun real__ref___projection ((a real__ref)) Real (real__content a))

(define-fun us_private__ref___projection ((a us_private__ref)) us_private 
  (us_private__content a))

(declare-fun nth ((_ BitVec 8) Int) Bool)

(declare-fun lsr ((_ BitVec 8) Int) (_ BitVec 8))

(declare-fun asr ((_ BitVec 8) Int) (_ BitVec 8))

(declare-fun lsl ((_ BitVec 8) Int) (_ BitVec 8))

(define-fun abs1 ((x Int)) Int (ite (<= 0 x) x (- x)))

;; Abs_le
  (assert
  (forall ((x Int) (y Int)) (= (<= (abs1 x) y) (and (<= (- y) x) (<= x y)))))

;; Abs_pos
  (assert (forall ((x Int)) (<= 0 (abs1 x))))

;; Div_unique
  (assert
  (forall ((x Int) (y Int) (q Int))
  (=> (< 0 y) (=> (and (<= (* q y) x) (< x (+ (* q y) y))) (= (div x y) q)))))

;; Div_bound
  (assert
  (forall ((x Int) (y Int))
  (=> (and (<= 0 x) (< 0 y)) (and (<= 0 (div x y)) (<= (div x y) x)))))

;; Div_inf
  (assert
  (forall ((x Int) (y Int)) (=> (and (<= 0 x) (< x y)) (= (div x y) 0))))

;; Div_inf_neg
  (assert
  (forall ((x Int) (y Int))
  (=> (and (< 0 x) (<= x y)) (= (div (- x) y) (- 1)))))

;; Mod_0
  (assert (forall ((y Int)) (=> (not (= y 0)) (= (mod 0 y) 0))))

;; Div_1_left
  (assert (forall ((y Int)) (=> (< 1 y) (= (div 1 y) 0))))

;; Div_minus1_left
  (assert (forall ((y Int)) (=> (< 1 y) (= (div (- 1) y) (- 1)))))

;; Mod_1_left
  (assert (forall ((y Int)) (=> (< 1 y) (= (mod 1 y) 1))))

;; Mod_minus1_left
  (assert
  (forall ((y Int))
  (! (=> (< 1 y) (= (mod (- 1) y) (- y 1))) :pattern ((mod (- 1) y)) )))

;; Div_mult
  (assert
  (forall ((x Int) (y Int) (z Int))
  (! (=> (< 0 x) (= (div (+ (* x y) z) x) (+ y (div z x)))) :pattern ((div (+ (* x y) z) x)) )))

;; Mod_mult
  (assert
  (forall ((x Int) (y Int) (z Int))
  (! (=> (< 0 x) (= (mod (+ (* x y) z) x) (mod z x))) :pattern ((mod (+ (* x y) z) x)) )))

(declare-fun rotate_right1 ((_ BitVec 8) Int) (_ BitVec 8))

(declare-fun rotate_left1 ((_ BitVec 8) Int) (_ BitVec 8))

(declare-fun pow2 (Int) Int)

(define-fun to_int1 ((x (_ BitVec 8))) Int (ite (bvsge x (_ bv0 8))
                                           (bv2nat x) (- (- 256 (bv2nat x)))))

(define-fun uint_in_range ((i Int)) Bool (and (<= 0 i) (<= i 255)))

;; lsr_bv_is_lsr
  (assert
  (forall ((x (_ BitVec 8)) (n (_ BitVec 8)))
  (= (bvlshr x n) (lsr x (bv2nat n)))))

;; asr_bv_is_asr
  (assert
  (forall ((x (_ BitVec 8)) (n (_ BitVec 8)))
  (= (bvashr x n) (asr x (bv2nat n)))))

;; lsl_bv_is_lsl
  (assert
  (forall ((x (_ BitVec 8)) (n (_ BitVec 8)))
  (= (bvshl x n) (lsl x (bv2nat n)))))

;; rotate_left_bv_is_rotate_left
  (assert
  (forall ((v (_ BitVec 8)) (n (_ BitVec 8)))
  (= (bvor (bvshl v (bvurem n (_ bv8 8))) (bvlshr v (bvsub (_ bv8 8) (bvurem n (_ bv8 8))))) 
  (rotate_left1 v (bv2nat n)))))

;; rotate_right_bv_is_rotate_right
  (assert
  (forall ((v (_ BitVec 8)) (n (_ BitVec 8)))
  (= (bvor (bvlshr v (bvurem n (_ bv8 8))) (bvshl v (bvsub (_ bv8 8) (bvurem n (_ bv8 8))))) 
  (rotate_right1 v (bv2nat n)))))

(declare-fun nth_bv ((_ BitVec 8) (_ BitVec 8)) Bool)

;; nth_bv_def
  (assert
  (forall ((x (_ BitVec 8)) (i (_ BitVec 8)))
  (= (= (nth_bv x i) true) (not (= (bvand (bvlshr x i) #x01) #x00)))))

;; Nth_bv_is_nth
  (assert
  (forall ((x (_ BitVec 8)) (i (_ BitVec 8)))
  (= (nth x (bv2nat i)) (nth_bv x i))))

;; Nth_bv_is_nth2
  (assert
  (forall ((x (_ BitVec 8)) (i Int))
  (=> (and (<= 0 i) (< i 256)) (= (nth_bv x ((_ int2bv 8) i)) (nth x i)))))

(declare-fun eq_sub_bv ((_ BitVec 8) (_ BitVec 8) (_ BitVec 8)
  (_ BitVec 8)) Bool)

;; eq_sub_bv_def
  (assert
  (forall ((a (_ BitVec 8)) (b (_ BitVec 8)) (i (_ BitVec 8))
  (n (_ BitVec 8)))
  (let ((mask (bvshl (bvsub (bvshl #x01 n) #x01) i)))
  (= (eq_sub_bv a b i n) (= (bvand b mask) (bvand a mask))))))

(define-fun eq_sub ((a (_ BitVec 8)) (b (_ BitVec 8)) (i Int)
  (n Int)) Bool (forall ((j Int))
                (=> (and (<= i j) (< j (+ i n))) (= (nth a j) (nth b j)))))

;; eq_sub_equiv
  (assert
  (forall ((a (_ BitVec 8)) (b (_ BitVec 8)) (i (_ BitVec 8))
  (n (_ BitVec 8)))
  (= (eq_sub a b (bv2nat i) (bv2nat n)) (eq_sub_bv a b i n))))

(declare-datatypes ((t__ref 0))
(((t__refqtmk (t__content (_ BitVec 8))))))
(declare-fun power ((_ BitVec 8) Int) (_ BitVec 8))

(define-fun bv_min ((x (_ BitVec 8))
  (y (_ BitVec 8))) (_ BitVec 8) (ite (bvule x y) x y))

(define-fun bv_max ((x (_ BitVec 8))
  (y (_ BitVec 8))) (_ BitVec 8) (ite (bvule x y) y x))

(define-fun min ((x Int) (y Int)) Int (ite (<= x y) x y))

(define-fun max ((x Int) (y Int)) Int (ite (<= x y) y x))

;; Min_r
  (assert (forall ((x Int) (y Int)) (=> (<= y x) (= (min x y) y))))

;; Max_l
  (assert (forall ((x Int) (y Int)) (=> (<= y x) (= (max x y) x))))

;; Min_comm
  (assert (forall ((x Int) (y Int)) (= (min x y) (min y x))))

;; Max_comm
  (assert (forall ((x Int) (y Int)) (= (max x y) (max y x))))

;; Min_assoc
  (assert
  (forall ((x Int) (y Int) (z Int)) (= (min (min x y) z) (min x (min y z)))))

;; Max_assoc
  (assert
  (forall ((x Int) (y Int) (z Int)) (= (max (max x y) z) (max x (max y z)))))

(define-fun is_plus_infinity ((x Float32)) Bool (and (fp.isInfinite x)
                                                (fp.isPositive x)))

(define-fun is_minus_infinity ((x Float32)) Bool (and (fp.isInfinite x)
                                                 (fp.isNegative x)))

(define-fun is_plus_zero ((x Float32)) Bool (and (fp.isZero x)
                                            (fp.isPositive x)))

(define-fun is_minus_zero ((x Float32)) Bool (and (fp.isZero x)
                                             (fp.isNegative x)))

(declare-const max_int Int)

(define-fun in_int_range ((i Int)) Bool (and (<= (- max_int) i)
                                        (<= i max_int)))

(define-fun in_safe_int_range ((i Int)) Bool (and (<= (- 16777216) i)
                                             (<= i 16777216)))

(define-fun same_sign ((x Float32)
  (y Float32)) Bool (or (and (fp.isPositive x) (fp.isPositive y))
                    (and (fp.isNegative x) (fp.isNegative y))))

(define-fun diff_sign ((x Float32)
  (y Float32)) Bool (or (and (fp.isPositive x) (fp.isNegative y))
                    (and (fp.isNegative x) (fp.isPositive y))))

(define-fun product_sign ((z Float32) (x Float32)
  (y Float32)) Bool (and (=> (same_sign x y) (fp.isPositive z))
                    (=> (diff_sign x y) (fp.isNegative z))))

(define-fun sqr ((x Real)) Real (* x x))

(declare-fun sqrt1 (Real) Real)

(define-fun same_sign_real ((x Float32)
  (r Real)) Bool (or (and (fp.isPositive x) (< 0.0 r))
                 (and (fp.isNegative x) (< r 0.0))))

(declare-datatypes ((t__ref1 0))
(((t__refqtmk1 (t__content1 Float32)))))
(define-fun in_range ((x Int)) Bool (or (= x 0) (= x 1)))

(declare-fun attr__ATTRIBUTE_IMAGE (Bool) us_image)

(declare-fun attr__ATTRIBUTE_VALUE__pre_check (us_image) Bool)

(declare-fun attr__ATTRIBUTE_VALUE (us_image) Bool)

(declare-sort integer 0)

(declare-fun integerqtint (integer) Int)

;; integer'axiom
  (assert
  (forall ((i integer))
  (and (<= (- 2147483648) (integerqtint i)) (<= (integerqtint i) 2147483647))))

(define-fun in_range1 ((x Int)) Bool (and (<= (- 2147483648) x)
                                     (<= x 2147483647)))

(declare-fun attr__ATTRIBUTE_IMAGE1 (Int) us_image)

(declare-fun attr__ATTRIBUTE_VALUE__pre_check1 (us_image) Bool)

(declare-fun attr__ATTRIBUTE_VALUE1 (us_image) Int)

(declare-fun user_eq (integer integer) Bool)

(declare-const dummy integer)

(declare-datatypes ((integer__ref 0))
(((integer__refqtmk (integer__content integer)))))
(define-fun integer__ref_integer__content__projection ((a integer__ref)) integer 
  (integer__content a))

(declare-sort float__ 0)

(declare-fun user_eq1 (float__ float__) Bool)

(declare-fun attr__ATTRIBUTE_IMAGE2 (Float32) us_image)

(declare-fun attr__ATTRIBUTE_VALUE__pre_check2 (us_image) Bool)

(declare-fun attr__ATTRIBUTE_VALUE2 (us_image) Float32)

(declare-const dummy1 float__)

(declare-datatypes ((float____ref 0))
(((float____refqtmk (float____content float__)))))
(define-fun float____ref_float____content__projection ((a float____ref)) float__ 
  (float____content a))

(declare-fun to_rep (float__) Float32)

(declare-fun of_rep (Float32) float__)

;; inversion_axiom
  (assert
  (forall ((x float__)) (! (= (of_rep (to_rep x)) x) :pattern ((to_rep x)) )))

;; range_axiom
  (assert
  (forall ((x float__))
  (! (fp.isFinite32 (to_rep x)) :pattern ((to_rep x)) )))

;; coerce_axiom
  (assert
  (forall ((x Float32))
  (! (=> (fp.isFinite32 x) (= (to_rep (of_rep x)) x)) :pattern ((to_rep
                                                                (of_rep x))) )))

(define-fun to_rep1 ((x integer)) Int (integerqtint x))

(declare-fun of_rep1 (Int) integer)

;; inversion_axiom
  (assert
  (forall ((x integer))
  (! (= (of_rep1 (to_rep1 x)) x) :pattern ((to_rep1 x)) )))

;; range_axiom
  (assert
  (forall ((x integer)) (! (in_range1 (to_rep1 x)) :pattern ((to_rep1 x)) )))

;; coerce_axiom
  (assert
  (forall ((x Int))
  (! (=> (in_range1 x) (= (to_rep1 (of_rep1 x)) x)) :pattern ((to_rep1
                                                              (of_rep1 x))) )))

(declare-datatypes ((us_split_fields 0))
(((us_split_fieldsqtmk (rec__p__r__a integer)(rec__p__r__b float__)))))
(define-fun us_split_fields_rec__p__r__a__projection ((a us_split_fields)) integer 
  (rec__p__r__a a))

(define-fun us_split_fields_rec__p__r__b__projection ((a us_split_fields)) float__ 
  (rec__p__r__b a))

(declare-datatypes ((us_split_fields__ref 0))
(((us_split_fields__refqtmk (us_split_fields__content us_split_fields)))))
(define-fun us_split_fields__ref___split_fields__content__projection ((a us_split_fields__ref)) us_split_fields 
  (us_split_fields__content a))

(declare-datatypes ((us_rep 0))
(((us_repqtmk (us_split_fields1 us_split_fields)))))
(define-fun us_rep___split_fields__projection ((a us_rep)) us_split_fields 
  (us_split_fields1 a))

(define-fun bool_eq ((a us_rep)
  (b us_rep)) Bool (ite (and
                        (= (to_rep1 (rec__p__r__a (us_split_fields1 a))) 
                        (to_rep1 (rec__p__r__a (us_split_fields1 b))))
                        (fp.eq (to_rep (rec__p__r__b (us_split_fields1 a))) 
                        (to_rep (rec__p__r__b (us_split_fields1 b)))))
                   true false))

(declare-const value__size Int)

(declare-const object__size Int)

(declare-const alignment Int)

;; value__size_axiom
  (assert (<= 0 value__size))

;; object__size_axiom
  (assert (<= 0 object__size))

;; alignment_axiom
  (assert (<= 0 alignment))

(declare-const p__r__a__first__bit Int)

(declare-const p__r__a__last__bit Int)

(declare-const p__r__a__position Int)

;; p__r__a__first__bit_axiom
  (assert (<= 0 p__r__a__first__bit))

;; p__r__a__last__bit_axiom
  (assert (< p__r__a__first__bit p__r__a__last__bit))

;; p__r__a__position_axiom
  (assert (<= 0 p__r__a__position))

(declare-const p__r__b__first__bit Int)

(declare-const p__r__b__last__bit Int)

(declare-const p__r__b__position Int)

;; p__r__b__first__bit_axiom
  (assert (<= 0 p__r__b__first__bit))

;; p__r__b__last__bit_axiom
  (assert (< p__r__b__first__bit p__r__b__last__bit))

;; p__r__b__position_axiom
  (assert (<= 0 p__r__b__position))

(declare-fun user_eq2 (us_rep us_rep) Bool)

(declare-const dummy2 us_rep)

(declare-datatypes ((r__ref 0))
(((r__refqtmk (r__content us_rep)))))
(define-fun r__ref_r__content__projection ((a r__ref)) us_rep (r__content a))

(declare-const null_r us_rep)

(declare-const attr__ATTRIBUTE_ADDRESS Int)

(declare-sort unsigned_8 0)

(declare-const attr__ATTRIBUTE_MODULUS (_ BitVec 8))

(declare-fun attr__ATTRIBUTE_IMAGE3 ((_ BitVec 8)) us_image)

(declare-fun attr__ATTRIBUTE_VALUE__pre_check3 (us_image) Bool)

(declare-fun attr__ATTRIBUTE_VALUE3 (us_image) (_ BitVec 8))

(declare-fun user_eq3 (unsigned_8 unsigned_8) Bool)

(declare-const dummy3 unsigned_8)

(declare-datatypes ((unsigned_8__ref 0))
(((unsigned_8__refqtmk (unsigned_8__content unsigned_8)))))
(define-fun unsigned_8__ref_unsigned_8__content__projection ((a unsigned_8__ref)) unsigned_8 
  (unsigned_8__content a))

(declare-fun to_rep2 (unsigned_8) (_ BitVec 8))

(declare-fun of_rep2 ((_ BitVec 8)) unsigned_8)

;; inversion_axiom
  (assert
  (forall ((x unsigned_8))
  (! (= (of_rep2 (to_rep2 x)) x) :pattern ((to_rep2 x)) )))

;; range_axiom
  (assert true)

;; coerce_axiom
  (assert
  (forall ((x (_ BitVec 8)))
  (! (= (to_rep2 (of_rep2 x)) x) :pattern ((to_rep2 (of_rep2 x))) )))

(define-fun to_int2 ((x unsigned_8)) Int (bv2nat (to_rep2 x)))

;; range_int_axiom
  (assert
  (forall ((x unsigned_8)) (! (uint_in_range
  (to_int2 x)) :pattern ((to_int2 x)) )))

(declare-datatypes ((map__ref 0))
(((map__refqtmk (map__content (Array Int unsigned_8))))))
(declare-fun slide ((Array Int unsigned_8) Int Int) (Array Int unsigned_8))

;; slide_eq
  (assert
  (forall ((a (Array Int unsigned_8)))
  (forall ((first Int))
  (! (= (slide a first first) a) :pattern ((slide a first first)) ))))

;; slide_def
  (assert
  (forall ((a (Array Int unsigned_8)))
  (forall ((old_first Int))
  (forall ((new_first Int))
  (forall ((i Int))
  (! (= (select (slide a old_first new_first) i) (select a (- i (- new_first old_first)))) :pattern ((select 
  (slide a old_first new_first) i)) ))))))

(define-fun bool_eq1 ((a (Array Int unsigned_8)) (a__first Int) (a__last Int)
  (b (Array Int unsigned_8)) (b__first Int)
  (b__last Int)) Bool (ite (and
                           (ite (<= a__first a__last)
                           (and (<= b__first b__last)
                           (= (- a__last a__first) (- b__last b__first)))
                           (< b__last b__first))
                           (forall ((temp___idx_154 Int))
                           (=>
                           (and (<= a__first temp___idx_154)
                           (<= temp___idx_154 a__last))
                           (= (to_rep2 (select a temp___idx_154)) (to_rep2
                                                                  (select b (+ (- b__first a__first) temp___idx_154)))))))
                      true false))

;; bool_eq_rev
  (assert
  (forall ((a (Array Int unsigned_8)) (b (Array Int unsigned_8)))
  (forall ((a__first Int) (a__last Int) (b__first Int) (b__last Int))
  (=> (= (bool_eq1 b b__first b__last a a__first a__last) true)
  (and
  (ite (<= a__first a__last)
  (and (<= b__first b__last) (= (- a__last a__first) (- b__last b__first)))
  (< b__last b__first))
  (forall ((temp___idx_154 Int))
  (=> (and (<= a__first temp___idx_154) (<= temp___idx_154 a__last))
  (= (to_rep2 (select a temp___idx_154)) (to_rep2
                                         (select b (+ (- b__first a__first) temp___idx_154)))))))))))

(declare-const null_raw_r (Array Int unsigned_8))

(declare-const attr__ATTRIBUTE_ADDRESS1 Int)

(declare-const attr__ATTRIBUTE_ADDRESS2 Int)

(declare-const attr__ATTRIBUTE_ADDRESS3 Int)

(declare-sort r_raw_index 0)

(declare-fun r_raw_indexqtint (r_raw_index) Int)

;; r_raw_index'axiom
  (assert
  (forall ((i r_raw_index))
  (and (<= 1 (r_raw_indexqtint i)) (<= (r_raw_indexqtint i) 8))))

(define-fun in_range2 ((x Int)) Bool (and (<= 1 x) (<= x 8)))

(declare-fun attr__ATTRIBUTE_IMAGE4 (Int) us_image)

(declare-fun attr__ATTRIBUTE_VALUE__pre_check4 (us_image) Bool)

(declare-fun attr__ATTRIBUTE_VALUE4 (us_image) Int)

(declare-fun user_eq4 (r_raw_index r_raw_index) Bool)

(declare-const dummy4 r_raw_index)

(declare-datatypes ((r_raw_index__ref 0))
(((r_raw_index__refqtmk (r_raw_index__content r_raw_index)))))
(define-fun r_raw_index__ref_r_raw_index__content__projection ((a r_raw_index__ref)) r_raw_index 
  (r_raw_index__content a))

(declare-fun p__null_raw_r__aggregate_def ((_ BitVec 8)) (Array Int unsigned_8))

(define-fun dynamic_invariant ((temp___expr_18 Int) (temp___is_init_14 Bool)
  (temp___skip_constant_15 Bool) (temp___do_toplevel_16 Bool)
  (temp___do_typ_inv_17 Bool)) Bool (=>
                                    (or (= temp___is_init_14 true)
                                    (<= (- 2147483648) 2147483647))
                                    (in_range1 temp___expr_18)))

(define-fun dynamic_invariant1 ((temp___expr_60 Float32)
  (temp___is_init_56 Bool) (temp___skip_constant_57 Bool)
  (temp___do_toplevel_58 Bool)
  (temp___do_typ_inv_59 Bool)) Bool (=>
                                    (or (= temp___is_init_56 true)
                                    (fp.leq (fp.neg (fp #b0 #b11111110 #b11111111111111111111111)) (fp #b0 #b11111110 #b11111111111111111111111)))
                                    (fp.isFinite32 temp___expr_60)))

(define-fun dynamic_invariant2 ((temp___expr_171 Int)
  (temp___is_init_167 Bool) (temp___skip_constant_168 Bool)
  (temp___do_toplevel_169 Bool)
  (temp___do_typ_inv_170 Bool)) Bool (=>
                                     (or (= temp___is_init_167 true)
                                     (<= 1 8)) (in_range2 temp___expr_171)))

(declare-const rliteral integer)

;; rliteral_axiom
  (assert (= (integerqtint rliteral) 0))

;; null_r__def_axiom
  (assert
  (= null_r (us_repqtmk
            (us_split_fieldsqtmk rliteral
            (of_rep (fp #b0 #b00000000 #b00000000000000000000000))))))

;; null_raw_r__def_axiom
  (assert (= null_raw_r (p__null_raw_r__aggregate_def #x00)))

(define-fun dynamic_invariant3 ((temp___expr_178 (_ BitVec 8))
  (temp___is_init_174 Bool) (temp___skip_constant_175 Bool)
  (temp___do_toplevel_176 Bool) (temp___do_typ_inv_177 Bool)) Bool true)

;; def_axiom
  (assert
  (forall ((temp___156 (_ BitVec 8)))
  (=> (dynamic_invariant3 temp___156 true true true true)
  (forall ((temp___157 Int))
  (= (to_rep2 (select (p__null_raw_r__aggregate_def temp___156) temp___157)) temp___156)))))

(assert
;; defqtvc
 ;; File "p.ads", line 24, characters 0-0
  (not
  (forall ((o float__) (full_s__split_fields us_split_fields))
  (=> (= (to_rep o) (fp #b0 #b00000000 #b00000000000000000000000))
  (=> (= (us_repqtmk (us_split_fieldsqtmk rliteral o)) null_r)
  (=> (= (p__null_raw_r__aggregate_def #x00) null_raw_r)
  (=> (= full_s__split_fields (us_split_fields1 null_r))
  (= (bool_eq (us_repqtmk full_s__split_fields) null_r) true))))))))
(check-sat)
